# 6.3.5.2_group0_PF00117_30-85~6.3.5.8_group0_PF00117_30-85.sdpA
# All alignment positions within 5\AA of a ligand/cat site passing the sdpA filter.  Column indices start with 0.
4
5
11
68
112
188
189
251
